446 673
741 421
73 134
772 978
956 29
494 205
455 3
144 278
200 360
93 251
670 317
302 995
121 966
814 494
878 218
649 557
946 525
779 914
127 573
343 333
6 327
590 700
56 193
738 797
666 889
289 558
215 829
136 629
752 446
790 647
302 414
891 590
35 974
58 293
185 35
473 859
882 662
929 783
948 893
629 955
627 429
122 696
106 472
806 551
723 408
155 130
522 101
573 84
644 359
65 269
625 217
281 878
193 565
103 789
434 847
143 872
177 187
341 41
859 149
503 355